
<<< setup


<<< generate

Version identifier: 22.1.1.0 | 2022-11-28 | 9160aff4d
CPXPARAM_TimeLimit                               1800
Found incumbent of value 0.000000 after 0.00 sec. (0.01 ticks)
Tried aggregator 3 times.
MIP Presolve eliminated 11 rows and 56 columns.
MIP Presolve modified 46 coefficients.
Aggregator did 85 substitutions.
Reduced MIP has 125 rows, 118 columns, and 304 nonzeros.
Reduced MIP has 71 binaries, 8 generals, 0 SOSs, and 0 indicators.
Presolve time = 0.00 sec. (0.46 ticks)
Probing fixed 0 vars, tightened 18 bounds.
Probing time = 0.00 sec. (0.17 ticks)
Tried aggregator 2 times.
Aggregator did 21 substitutions.
Reduced MIP has 104 rows, 97 columns, and 271 nonzeros.
Reduced MIP has 71 binaries, 26 generals, 0 SOSs, and 0 indicators.
Presolve time = 0.00 sec. (0.25 ticks)
Probing time = 0.00 sec. (0.13 ticks)
Tried aggregator 1 time.
Detecting symmetries...
Reduced MIP has 104 rows, 97 columns, and 271 nonzeros.
Reduced MIP has 71 binaries, 26 generals, 0 SOSs, and 0 indicators.
Presolve time = 0.00 sec. (0.22 ticks)
Probing time = 0.00 sec. (0.12 ticks)
Clique table members: 241.
MIP emphasis: balance optimality and feasibility.
MIP search method: dynamic search.
Parallel mode: deterministic, using up to 8 threads.
Root relaxation solution time = 0.00 sec. (0.13 ticks)

        Nodes                                         Cuts/
   Node  Left     Objective  IInf  Best Integer    Best Bound    ItCnt     Gap

*     0+    0                            0.0000       13.0000              --- 
*     0+    0                            4.0000       13.0000           225.00%
      0     0        8.0000    12        4.0000        8.0000       16  100.00%
*     0+    0                            8.0000        8.0000             0.00%
      0     0        cutoff              8.0000        8.0000       16    0.00%
Elapsed time = 0.01 sec. (2.57 ticks, tree = 0.01 MB, solutions = 3)

Root node processing (before b&c):
  Real time             =    0.01 sec. (2.58 ticks)
Parallel b&c, 8 threads:
  Real time             =    0.00 sec. (0.00 ticks)
  Sync time (average)   =    0.00 sec.
  Wait time (average)   =    0.00 sec.
                          ------------
Total (root+branch&cut) =    0.01 sec. (2.58 ticks)

<<< solve


OBJECTIVE: 8

<<< post process


<<< done

